benchmarks/VRPTW/TSPTW/solution/n100w60.002.txt.solution
1 57 43 100 67 59 64 41 84 39 71 40 24 53 17 9 98 45 23 75 96 78 65 6 55 54 38 18 47 42 86 25 99 33 46 48 27 79 31 28 76 36 80 22 93 63 52 4 34 70 13 81 14 88 91 19 97 12 21 20 85 7 90 5 73 50 29 69 35 95 87 82 49 66 51 37 62 94 15 74 44 72 56 11 58 92 68 3 77 83 30 32 60 89 61 26 2 10 101 16 8 
659
